Route #1: 4 45 30 48 47 21 74 2
Route #2: 37 20 70 60 71 36 69 61 28 62 73 33
Route #3: 63 1 22 64 42 43 41 56 23 49 24
Route #4: 16 3 44 32 50 18 55 25 9 39 72
Route #5: 58 31 10 38 65 66 11
Route #6: 53 14 59 19 54 13 57 15 5 29
Route #7: 67 34 46 27 52 8 35 7 26
Route #8: 12 40 17 51 6 68 75
Cost 781